/* Objective function */
min: 3 xI1 + 4.24 xI2 + 6.32 xI3 + 8.25 xI4 + 5.66 xI5 + 6.00 xI6 + 10.00 xI7 + 9.85 xI8 + 10.00 xI9 + 10.20 xI_10 + 11.18 xI_11 + 12.81  xI_12 + 14.42  xIF +
             3.00 x12 + 6.08 x13 + 8.06 x14 + 4.12 x15 + 3.00 x16 +  8.54 x17 + 7.21 x18 +  7.00 x19 +  7.28 x1_10 +  8.60 x1_11 + 10.63  x1_12 + 12.04  x1F +
                        3.16 x23 + 5.10 x24 + 1.41 x25 + 4.24 x26 +  5.83 x27 + 6.08 x28 +  7.62 x29 +  7.07 x2_10 +  7.28 x2_11 +  8.60  x2_12 + 10.30  x2F +
                                   2.00 x34 + 2.83 x35 + 7.21 x36 +  4.47 x37 + 7.28 x38 + 10.00 x39 +  8.94 x3_10 +  8.06 x3_11 +  8.25  x3_12 + 10.20  x3F +
                                              4.47 x45 + 8.94 x46 +  4.00 x47 + 8.06 x48 + 11.31 x49 + 10.00 x4_10 +  8.54 x4_11 +  8.00  x4_12 + 10.00  x4F +
                                                         4.47 x56 +  4.47 x57 + 5.00 x58 +  7.21 x59 +  6.32 x5_10 +  6.08 x5_11 +  7.21  x5_12 +  8.94  x5F +
                                                                     8.00 x67 + 5.00 x68 +  4.00 x69 +  4.47 x6_10 +  6.40 x6_11 +  8.94  x6_12 + 10.00  x6F +
                                                                                5.00 x78 +  8.94 x79 +  7.21 x7_10 +  5.00 x7_11 +  4.00  x7_12 +  6.00  x7F +
                                                                                            4.12 x89 +  2.24 x8_10 +  1.41 x8_11 +  4.12  x8_12 +  5.00  x8F +
                                                                                                        2.00 x9_10 +  5.00 x9_11 +  8.00  x9_12 +  8.25  x9F +
                                                                                                                      3.00 x10_11 +  6.00 x10_12 +  6.32 x10F +
                                                                                                                                     3.00 x11_12 +  3.61 x11F +
                                                                                                                                                    2.00 x12F;

/* Variable bounds */

VI:          xI1   + xI2   + xI3   + xI4   + xI5   + xI6   + xI7   + xI8   + xI9   + xI_10  + xI_11  +  xI_12  + xIF  = 1;
V1:  xI1   +         x12   + x13   + x14   + x15   + x16   + x17   + x18   + x19   + x1_10  + x1_11  +  x1_12  + x1F  = 1;
V2:  xI2   + x12   +         x23   + x24   + x25   + x26   + x27   + x28   + x29   + x2_10  + x2_11  +  x2_12  + x2F  = 1;
V3:  xI3   + x13   + x23   +         x34   + x35   + x36   + x37   + x38   + x39   + x3_10  + x3_11  +  x3_12  + x3F  = 1;
V4:  xI4   + x14   + x24   + x34   +         x45   + x46   + x47   + x48   + x49   + x4_10  + x4_11  +  x4_12  + x4F  = 1;
V5:  xI5   + x15   + x25   + x35   + x45   +         x56   + x57   + x58   + x59   + x5_10  + x5_11  +  x5_12  + x5F  = 1;
V6:  xI6   + x16   + x26   + x36   + x46   + x56   +         x67   + x68   + x69   + x6_10  + x6_11  +  x6_12  + x6F  = 1;
V7:  xI7   + x17   + x27   + x37   + x47   + x57   + x67   +         x78   + x79   + x7_10  + x7_11  +  x7_12  + x7F  = 1;
V8:  xI8   + x18   + x28   + x38   + x48   + x58   + x68   + x78   +         x89   + x8_10  + x8_11  +  x8_12  + x8F  = 1;
V9:  xI9   + x19   + x29   + x39   + x49   + x59   + x69   + x79   + x89   +         x9_10  + x9_11  +  x9_12  + x9F  = 1;
V10: xI_10 + x1_10 + x2_10 + x3_10 + x4_10 + x5_10 + x6_10 + x7_10 + x8_10 + x9_10 +          x10_11 +  x10_12 + x10F = 1;
V11: xI_11 + x1_11 + x2_11 + x3_11 + x4_11 + x5_11 + x6_11 + x7_11 + x8_11 + x9_11 + x10_11 +           x11_12 + x11F = 1;
V12: xI_12 + x1_12 + x2_12 + x3_12 + x4_12 + x5_12 + x6_12 + x7_12 + x8_12 + x9_12 + x10_12 + x11_12 +           x12F = 1;
VF:  xIF   + x1F   + x2F   + x3F   + x4F   + x5F   + x6F   + x7F   + x8F   + x9F   + x10F   + x11F   +  x12F          = 1;

bin xI1, xI2, xI3, xI4, xI5, xI6, xI7, xI8, xI9, xI_10, xI_11,  xI_12,  xIF,
         x12, x13, x14, x15, x16, x17, x18, x19, x1_10, x1_11,  x1_12,  x1F,
              x23, x24, x25, x26, x27, x28, x29, x2_10, x2_11,  x2_12,  x2F,
                   x34, x35, x36, x37, x38, x39, x3_10, x3_11,  x3_12,  x3F,
                        x45, x46, x47, x48, x49, x4_10, x4_11,  x4_12,  x4F,
                             x56, x57, x58, x59, x5_10, x5_11,  x5_12,  x5F,
                                  x67, x68, x69, x6_10, x6_11,  x6_12,  x6F,
                                       x78, x79, x7_10, x7_11,  x7_12,  x7F,
                                            x89, x8_10, x8_11,  x8_12,  x8F,
                                                 x9_10, x9_11,  x9_12,  x9F,
                                                        x10_11, x10_12, x10F,
                                                                x11_12, x11F,
                                                                        x12F;
